c 
c MolecularSimulation 0.9.3
c Simulation written: Jan 13 2012 -- 15:17:57
c Test: Distribution
c Input: ./data/testCNF/SWEEP_R14_K3_N20_M276_S002.cnf
c 
s UNSATISFIABLE
v 0
c algorithmTime:  891
c solutionMemory: 0
c mixCount:       825
c extractCount:   0
c appendCount:    16797820
c splitCount:     825
c spliceCount:    7896181
c purifyCount:    275
c 
